NAME : cgl_114.8685.tour
COMMENT : Length = 8685
COMMENT : Found by LKH-3 [Keld Helsgaun] Fri Nov  8 17:38:22 2024
TYPE : TOUR
DIMENSION : 115
TOUR_SECTION
74
50
65
60
80
73
95
94
96
97
98
15
21
14
17
19
18
16
13
20
8
11
12
4
5
6
7
9
10
25
26
27
28
29
32
30
33
31
115
24
23
22
3
1
2
102
103
100
101
104
99
105
107
106
108
109
110
114
111
112
113
37
36
35
34
38
39
43
44
41
42
40
88
87
46
48
47
49
45
78
51
56
62
63
55
66
52
91
57
54
92
82
77
81
69
61
89
59
85
68
76
75
58
53
84
93
90
86
79
64
67
71
83
70
72
-1
EOF
